c CNF file corresponding to a (partial) station packing problem.
p cnf 4591 184
1 2 3 4 5 6 7 8 9 10 11 12 13 14 0
-1 -2 0
-1 -3 0
-1 -4 0
-1 -5 0
-1 -6 0
-1 -7 0
-1 -8 0
-1 -9 0
-1 -10 0
-1 -11 0
-1 -12 0
-1 -13 0
-1 -14 0
-2 -3 0
-2 -4 0
-2 -5 0
-2 -6 0
-2 -7 0
-2 -8 0
-2 -9 0
-2 -10 0
-2 -11 0
-2 -12 0
-2 -13 0
-2 -14 0
-3 -4 0
-3 -5 0
-3 -6 0
-3 -7 0
-3 -8 0
-3 -9 0
-3 -10 0
-3 -11 0
-3 -12 0
-3 -13 0
-3 -14 0
-4 -5 0
-4 -6 0
-4 -7 0
-4 -8 0
-4 -9 0
-4 -10 0
-4 -11 0
-4 -12 0
-4 -13 0
-4 -14 0
-5 -6 0
-5 -7 0
-5 -8 0
-5 -9 0
-5 -10 0
-5 -11 0
-5 -12 0
-5 -13 0
-5 -14 0
-6 -7 0
-6 -8 0
-6 -9 0
-6 -10 0
-6 -11 0
-6 -12 0
-6 -13 0
-6 -14 0
-7 -8 0
-7 -9 0
-7 -10 0
-7 -11 0
-7 -12 0
-7 -13 0
-7 -14 0
-8 -9 0
-8 -10 0
-8 -11 0
-8 -12 0
-8 -13 0
-8 -14 0
-9 -10 0
-9 -11 0
-9 -12 0
-9 -13 0
-9 -14 0
-10 -11 0
-10 -12 0
-10 -13 0
-10 -14 0
-11 -12 0
-11 -13 0
-11 -14 0
-12 -13 0
-12 -14 0
-13 -14 0
4578 4579 4580 4581 4582 4583 4584 4585 4586 4587 4588 4589 4590 4591 0
-4578 -4579 0
-4578 -4580 0
-4578 -4581 0
-4578 -4582 0
-4578 -4583 0
-4578 -4584 0
-4578 -4585 0
-4578 -4586 0
-4578 -4587 0
-4578 -4588 0
-4578 -4589 0
-4578 -4590 0
-4578 -4591 0
-4579 -4580 0
-4579 -4581 0
-4579 -4582 0
-4579 -4583 0
-4579 -4584 0
-4579 -4585 0
-4579 -4586 0
-4579 -4587 0
-4579 -4588 0
-4579 -4589 0
-4579 -4590 0
-4579 -4591 0
-4580 -4581 0
-4580 -4582 0
-4580 -4583 0
-4580 -4584 0
-4580 -4585 0
-4580 -4586 0
-4580 -4587 0
-4580 -4588 0
-4580 -4589 0
-4580 -4590 0
-4580 -4591 0
-4581 -4582 0
-4581 -4583 0
-4581 -4584 0
-4581 -4585 0
-4581 -4586 0
-4581 -4587 0
-4581 -4588 0
-4581 -4589 0
-4581 -4590 0
-4581 -4591 0
-4582 -4583 0
-4582 -4584 0
-4582 -4585 0
-4582 -4586 0
-4582 -4587 0
-4582 -4588 0
-4582 -4589 0
-4582 -4590 0
-4582 -4591 0
-4583 -4584 0
-4583 -4585 0
-4583 -4586 0
-4583 -4587 0
-4583 -4588 0
-4583 -4589 0
-4583 -4590 0
-4583 -4591 0
-4584 -4585 0
-4584 -4586 0
-4584 -4587 0
-4584 -4588 0
-4584 -4589 0
-4584 -4590 0
-4584 -4591 0
-4585 -4586 0
-4585 -4587 0
-4585 -4588 0
-4585 -4589 0
-4585 -4590 0
-4585 -4591 0
-4586 -4587 0
-4586 -4588 0
-4586 -4589 0
-4586 -4590 0
-4586 -4591 0
-4587 -4588 0
-4587 -4589 0
-4587 -4590 0
-4587 -4591 0
-4588 -4589 0
-4588 -4590 0
-4588 -4591 0
-4589 -4590 0
-4589 -4591 0
-4590 -4591 0
